NAME : n100w40.003.835.tour
COMMENT : Length = 835
COMMENT : Found by LKH [Keld Helsgaun] Tue Nov  7 19:36:29 2017
TYPE : TOUR
DIMENSION : 101
TOUR_SECTION
1
42
46
4
41
49
71
96
85
7
45
23
21
35
15
22
44
30
60
67
63
20
76
65
11
59
36
70
62
86
97
48
25
77
74
13
50
92
28
32
56
94
69
66
95
12
47
39
91
87
99
33
3
98
90
19
37
93
53
80
78
8
18
84
24
55
72
38
27
68
52
54
29
31
83
89
17
79
58
5
75
9
10
64
61
100
88
16
51
2
82
43
14
73
57
26
34
40
81
101
6
-1
EOF
